       125         64          4          0          0
0001  -5.000000000000E-01 -5.000000000000E-01 -5.000000000000E-01
0002  -2.500000000000E-01 -5.000000000000E-01 -5.000000000000E-01
0003   0.000000000000E+00 -5.000000000000E-01 -5.000000000000E-01
0004   2.500000000000E-01 -5.000000000000E-01 -5.000000000000E-01
0005   5.000000000000E-01 -5.000000000000E-01 -5.000000000000E-01
0006  -5.000000000000E-01 -2.500000000000E-01 -5.000000000000E-01
0007  -2.500000000000E-01 -2.500000000000E-01 -5.000000000000E-01
0008   0.000000000000E+00 -2.500000000000E-01 -5.000000000000E-01
0009   2.500000000000E-01 -2.500000000000E-01 -5.000000000000E-01
0010   5.000000000000E-01 -2.500000000000E-01 -5.000000000000E-01
0011  -5.000000000000E-01  0.000000000000E+00 -5.000000000000E-01
0012  -2.500000000000E-01  0.000000000000E+00 -5.000000000000E-01
0013   0.000000000000E+00  0.000000000000E+00 -5.000000000000E-01
0014   2.500000000000E-01  0.000000000000E+00 -5.000000000000E-01
0015   5.000000000000E-01  0.000000000000E+00 -5.000000000000E-01
0016  -5.000000000000E-01  2.500000000000E-01 -5.000000000000E-01
0017  -2.500000000000E-01  2.500000000000E-01 -5.000000000000E-01
0018   0.000000000000E+00  2.500000000000E-01 -5.000000000000E-01
0019   2.500000000000E-01  2.500000000000E-01 -5.000000000000E-01
0020   5.000000000000E-01  2.500000000000E-01 -5.000000000000E-01
0021  -5.000000000000E-01  5.000000000000E-01 -5.000000000000E-01
0022  -2.500000000000E-01  5.000000000000E-01 -5.000000000000E-01
0023   0.000000000000E+00  5.000000000000E-01 -5.000000000000E-01
0024   2.500000000000E-01  5.000000000000E-01 -5.000000000000E-01
0025   5.000000000000E-01  5.000000000000E-01 -5.000000000000E-01
0026  -5.000000000000E-01 -5.000000000000E-01 -2.500000000000E-01
0027  -2.500000000000E-01 -5.000000000000E-01 -2.500000000000E-01
0028   0.000000000000E+00 -5.000000000000E-01 -2.500000000000E-01
0029   2.500000000000E-01 -5.000000000000E-01 -2.500000000000E-01
0030   5.000000000000E-01 -5.000000000000E-01 -2.500000000000E-01
0031  -5.000000000000E-01 -2.500000000000E-01 -2.500000000000E-01
0032  -2.500000000000E-01 -2.500000000000E-01 -2.500000000000E-01
0033   0.000000000000E+00 -2.500000000000E-01 -2.500000000000E-01
0034   2.500000000000E-01 -2.500000000000E-01 -2.500000000000E-01
0035   5.000000000000E-01 -2.500000000000E-01 -2.500000000000E-01
0036  -5.000000000000E-01  0.000000000000E+00 -2.500000000000E-01
0037  -2.500000000000E-01  0.000000000000E+00 -2.500000000000E-01
0038   0.000000000000E+00  0.000000000000E+00 -2.500000000000E-01
0039   2.500000000000E-01  0.000000000000E+00 -2.500000000000E-01
0040   5.000000000000E-01  0.000000000000E+00 -2.500000000000E-01
0041  -5.000000000000E-01  2.500000000000E-01 -2.500000000000E-01
0042  -2.500000000000E-01  2.500000000000E-01 -2.500000000000E-01
0043   0.000000000000E+00  2.500000000000E-01 -2.500000000000E-01
0044   2.500000000000E-01  2.500000000000E-01 -2.500000000000E-01
0045   5.000000000000E-01  2.500000000000E-01 -2.500000000000E-01
0046  -5.000000000000E-01  5.000000000000E-01 -2.500000000000E-01
0047  -2.500000000000E-01  5.000000000000E-01 -2.500000000000E-01
0048   0.000000000000E+00  5.000000000000E-01 -2.500000000000E-01
0049   2.500000000000E-01  5.000000000000E-01 -2.500000000000E-01
0050   5.000000000000E-01  5.000000000000E-01 -2.500000000000E-01
0051  -5.000000000000E-01 -5.000000000000E-01  0.000000000000E+00
0052  -2.500000000000E-01 -5.000000000000E-01  0.000000000000E+00
0053   0.000000000000E+00 -5.000000000000E-01  0.000000000000E+00
0054   2.500000000000E-01 -5.000000000000E-01  0.000000000000E+00
0055   5.000000000000E-01 -5.000000000000E-01  0.000000000000E+00
0056  -5.000000000000E-01 -2.500000000000E-01  0.000000000000E+00
0057  -2.500000000000E-01 -2.500000000000E-01  0.000000000000E+00
0058   0.000000000000E+00 -2.500000000000E-01  0.000000000000E+00
0059   2.500000000000E-01 -2.500000000000E-01  0.000000000000E+00
0060   5.000000000000E-01 -2.500000000000E-01  0.000000000000E+00
0061  -5.000000000000E-01  0.000000000000E+00  0.000000000000E+00
0062  -2.500000000000E-01  0.000000000000E+00  0.000000000000E+00
0063   0.000000000000E+00  0.000000000000E+00  0.000000000000E+00
0064   2.500000000000E-01  0.000000000000E+00  0.000000000000E+00
0065   5.000000000000E-01  0.000000000000E+00  0.000000000000E+00
0066  -5.000000000000E-01  2.500000000000E-01  0.000000000000E+00
0067  -2.500000000000E-01  2.500000000000E-01  0.000000000000E+00
0068   0.000000000000E+00  2.500000000000E-01  0.000000000000E+00
0069   2.500000000000E-01  2.500000000000E-01  0.000000000000E+00
0070   5.000000000000E-01  2.500000000000E-01  0.000000000000E+00
0071  -5.000000000000E-01  5.000000000000E-01  0.000000000000E+00
0072  -2.500000000000E-01  5.000000000000E-01  0.000000000000E+00
0073   0.000000000000E+00  5.000000000000E-01  0.000000000000E+00
0074   2.500000000000E-01  5.000000000000E-01  0.000000000000E+00
0075   5.000000000000E-01  5.000000000000E-01  0.000000000000E+00
0076  -5.000000000000E-01 -5.000000000000E-01  2.500000000000E-01
0077  -2.500000000000E-01 -5.000000000000E-01  2.500000000000E-01
0078   0.000000000000E+00 -5.000000000000E-01  2.500000000000E-01
0079   2.500000000000E-01 -5.000000000000E-01  2.500000000000E-01
0080   5.000000000000E-01 -5.000000000000E-01  2.500000000000E-01
0081  -5.000000000000E-01 -2.500000000000E-01  2.500000000000E-01
0082  -2.500000000000E-01 -2.500000000000E-01  2.500000000000E-01
0083   0.000000000000E+00 -2.500000000000E-01  2.500000000000E-01
0084   2.500000000000E-01 -2.500000000000E-01  2.500000000000E-01
0085   5.000000000000E-01 -2.500000000000E-01  2.500000000000E-01
0086  -5.000000000000E-01  0.000000000000E+00  2.500000000000E-01
0087  -2.500000000000E-01  0.000000000000E+00  2.500000000000E-01
0088   0.000000000000E+00  0.000000000000E+00  2.500000000000E-01
0089   2.500000000000E-01  0.000000000000E+00  2.500000000000E-01
0090   5.000000000000E-01  0.000000000000E+00  2.500000000000E-01
0091  -5.000000000000E-01  2.500000000000E-01  2.500000000000E-01
0092  -2.500000000000E-01  2.500000000000E-01  2.500000000000E-01
0093   0.000000000000E+00  2.500000000000E-01  2.500000000000E-01
0094   2.500000000000E-01  2.500000000000E-01  2.500000000000E-01
0095   5.000000000000E-01  2.500000000000E-01  2.500000000000E-01
0096  -5.000000000000E-01  5.000000000000E-01  2.500000000000E-01
0097  -2.500000000000E-01  5.000000000000E-01  2.500000000000E-01
0098   0.000000000000E+00  5.000000000000E-01  2.500000000000E-01
0099   2.500000000000E-01  5.000000000000E-01  2.500000000000E-01
0100   5.000000000000E-01  5.000000000000E-01  2.500000000000E-01
0101  -5.000000000000E-01 -5.000000000000E-01  5.000000000000E-01
0102  -2.500000000000E-01 -5.000000000000E-01  5.000000000000E-01
0103   0.000000000000E+00 -5.000000000000E-01  5.000000000000E-01
0104   2.500000000000E-01 -5.000000000000E-01  5.000000000000E-01
0105   5.000000000000E-01 -5.000000000000E-01  5.000000000000E-01
0106  -5.000000000000E-01 -2.500000000000E-01  5.000000000000E-01
0107  -2.500000000000E-01 -2.500000000000E-01  5.000000000000E-01
0108   0.000000000000E+00 -2.500000000000E-01  5.000000000000E-01
0109   2.500000000000E-01 -2.500000000000E-01  5.000000000000E-01
0110   5.000000000000E-01 -2.500000000000E-01  5.000000000000E-01
0111  -5.000000000000E-01  0.000000000000E+00  5.000000000000E-01
0112  -2.500000000000E-01  0.000000000000E+00  5.000000000000E-01
0113   0.000000000000E+00  0.000000000000E+00  5.000000000000E-01
0114   2.500000000000E-01  0.000000000000E+00  5.000000000000E-01
0115   5.000000000000E-01  0.000000000000E+00  5.000000000000E-01
0116  -5.000000000000E-01  2.500000000000E-01  5.000000000000E-01
0117  -2.500000000000E-01  2.500000000000E-01  5.000000000000E-01
0118   0.000000000000E+00  2.500000000000E-01  5.000000000000E-01
0119   2.500000000000E-01  2.500000000000E-01  5.000000000000E-01
0120   5.000000000000E-01  2.500000000000E-01  5.000000000000E-01
0121  -5.000000000000E-01  5.000000000000E-01  5.000000000000E-01
0122  -2.500000000000E-01  5.000000000000E-01  5.000000000000E-01
0123   0.000000000000E+00  5.000000000000E-01  5.000000000000E-01
0124   2.500000000000E-01  5.000000000000E-01  5.000000000000E-01
0125   5.000000000000E-01  5.000000000000E-01  5.000000000000E-01
001        1   hex  26  27  32  31   1   2   7   6
002        1   hex  27  28  33  32   2   3   8   7
003        1   hex  28  29  34  33   3   4   9   8
004        1   hex  29  30  35  34   4   5  10   9
005        1   hex  31  32  37  36   6   7  12  11
006        1   hex  32  33  38  37   7   8  13  12
007        1   hex  33  34  39  38   8   9  14  13
008        1   hex  34  35  40  39   9  10  15  14
009        1   hex  36  37  42  41  11  12  17  16
010        1   hex  37  38  43  42  12  13  18  17
011        1   hex  38  39  44  43  13  14  19  18
012        1   hex  39  40  45  44  14  15  20  19
013        1   hex  41  42  47  46  16  17  22  21
014        1   hex  42  43  48  47  17  18  23  22
015        1   hex  43  44  49  48  18  19  24  23
016        1   hex  44  45  50  49  19  20  25  24
017        1   hex  51  52  57  56  26  27  32  31
018        1   hex  52  53  58  57  27  28  33  32
019        1   hex  53  54  59  58  28  29  34  33
020        1   hex  54  55  60  59  29  30  35  34
021        1   hex  56  57  62  61  31  32  37  36
022        1   hex  57  58  63  62  32  33  38  37
023        1   hex  58  59  64  63  33  34  39  38
024        1   hex  59  60  65  64  34  35  40  39
025        1   hex  61  62  67  66  36  37  42  41
026        1   hex  62  63  68  67  37  38  43  42
027        1   hex  63  64  69  68  38  39  44  43
028        1   hex  64  65  70  69  39  40  45  44
029        1   hex  66  67  72  71  41  42  47  46
030        1   hex  67  68  73  72  42  43  48  47
031        1   hex  68  69  74  73  43  44  49  48
032        1   hex  69  70  75  74  44  45  50  49
033        1   hex  76  77  82  81  51  52  57  56
034        1   hex  77  78  83  82  52  53  58  57
035        1   hex  78  79  84  83  53  54  59  58
036        1   hex  79  80  85  84  54  55  60  59
037        1   hex  81  82  87  86  56  57  62  61
038        1   hex  82  83  88  87  57  58  63  62
039        1   hex  83  84  89  88  58  59  64  63
040        1   hex  84  85  90  89  59  60  65  64
041        1   hex  86  87  92  91  61  62  67  66
042        1   hex  87  88  93  92  62  63  68  67
043        1   hex  88  89  94  93  63  64  69  68
044        1   hex  89  90  95  94  64  65  70  69
045        1   hex  91  92  97  96  66  67  72  71
046        1   hex  92  93  98  97  67  68  73  72
047        1   hex  93  94  99  98  68  69  74  73
048        1   hex  94  95 100  99  69  70  75  74
049        1   hex 101 102 107 106  76  77  82  81
050        1   hex 102 103 108 107  77  78  83  82
051        1   hex 103 104 109 108  78  79  84  83
052        1   hex 104 105 110 109  79  80  85  84
053        1   hex 106 107 112 111  81  82  87  86
054        1   hex 107 108 113 112  82  83  88  87
055        1   hex 108 109 114 113  83  84  89  88
056        1   hex 109 110 115 114  84  85  90  89
057        1   hex 111 112 117 116  86  87  92  91
058        1   hex 112 113 118 117  87  88  93  92
059        1   hex 113 114 119 118  88  89  94  93
060        1   hex 114 115 120 119  89  90  95  94
061        1   hex 116 117 122 121  91  92  97  96
062        1   hex 117 118 123 122  92  93  98  97
063        1   hex 118 119 124 123  93  94  99  98
064        1   hex 119 120 125 124  94  95 100  99
00004  1  1  1  1
imt1, integer 
itp1, integer 
icr1, integer 
isn1, integer 
    1  1  10  0  0
    2  1  10  0  0
    3  1  10  0  0
    4  1  10  0  0
    5  1  10  0  0
    6  1  10  0  0
    7  1  10  0  0
    8  1  10  0  0
    9  1  10  0  0
   10  1  10  0  0
   11  1  10  0  0
   12  1  10  0  0
   13  1  10  0  0
   14  1  10  0  0
   15  1  10  0  0
   16  1  10  0  0
   17  1  10  0  0
   18  1  10  0  0
   19  1  10  0  0
   20  1  10  0  0
   21  1  10  0  0
   22  1  10  0  0
   23  1  10  0  0
   24  1  10  0  0
   25  1  10  0  0
   26  1  10  0  0
   27  1  10  0  0
   28  1  10  0  0
   29  1  10  0  0
   30  1  10  0  0
   31  1  10  0  0
   32  1   0  0  0
   33  1   0  0  0
   34  1   0  0  0
   35  1  10  0  0
   36  1  10  0  0
   37  1   0  0  0
   38  1   0  0  0
   39  1   0  0  0
   40  1  10  0  0
   41  1  10  0  0
   42  1   0  0  0
   43  1   0  0  0
   44  1   0  0  0
   45  1  10  0  0
   46  1  10  0  0
   47  1  10  0  0
   48  1  10  0  0
   49  1  10  0  0
   50  1  10  0  0
   51  1  10  0  0
   52  1  10  0  0
   53  1  10  0  0
   54  1  10  0  0
   55  1  10  0  0
   56  1  10  0  0
   57  1   0  0  0
   58  1   0  0  0
   59  1   0  0  0
   60  1  10  0  0
   61  1  10  0  0
   62  1   0  0  0
   63  1   0  0  0
   64  1   0  0  0
   65  1  10  0  0
   66  1  10  0  0
   67  1   0  0  0
   68  1   0  0  0
   69  1   0  0  0
   70  1  10  0  0
   71  1  10  0  0
   72  1  10  0  0
   73  1  10  0  0
   74  1  10  0  0
   75  1  10  0  0
   76  1  10  0  0
   77  1  10  0  0
   78  1  10  0  0
   79  1  10  0  0
   80  1  10  0  0
   81  1  10  0  0
   82  1   0  0  0
   83  1   0  0  0
   84  1   0  0  0
   85  1  10  0  0
   86  1  10  0  0
   87  1   0  0  0
   88  1   0  0  0
   89  1   0  0  0
   90  1  10  0  0
   91  1  10  0  0
   92  1   0  0  0
   93  1   0  0  0
   94  1   0  0  0
   95  1  10  0  0
   96  1  10  0  0
   97  1  10  0  0
   98  1  10  0  0
   99  1  10  0  0
  100  1  10  0  0
  101  1  10  0  0
  102  1  10  0  0
  103  1  10  0  0
  104  1  10  0  0
  105  1  10  0  0
  106  1  10  0  0
  107  1  10  0  0
  108  1  10  0  0
  109  1  10  0  0
  110  1  10  0  0
  111  1  10  0  0
  112  1  10  0  0
  113  1  10  0  0
  114  1  10  0  0
  115  1  10  0  0
  116  1  10  0  0
  117  1  10  0  0
  118  1  10  0  0
  119  1  10  0  0
  120  1  10  0  0
  121  1  10  0  0
  122  1  10  0  0
  123  1  10  0  0
  124  1  10  0  0
  125  1  10  0  0
