       125        384          5          0          0
0001  -5.000000000000E-01 -5.000000000000E-01 -5.000000000000E-01
0002  -5.000000000000E-01 -5.000000000000E-01 -2.500000000000E-01
0003  -5.000000000000E-01 -5.000000000000E-01  0.000000000000E+00
0004  -5.000000000000E-01 -5.000000000000E-01  2.500000000000E-01
0005  -5.000000000000E-01 -5.000000000000E-01  5.000000000000E-01
0006  -5.000000000000E-01 -2.500000000000E-01 -5.000000000000E-01
0007  -5.000000000000E-01 -2.500000000000E-01 -2.500000000000E-01
0008  -5.000000000000E-01 -2.500000000000E-01  0.000000000000E+00
0009  -5.000000000000E-01 -2.500000000000E-01  2.500000000000E-01
0010  -5.000000000000E-01 -2.500000000000E-01  5.000000000000E-01
0011  -5.000000000000E-01  0.000000000000E+00 -5.000000000000E-01
0012  -5.000000000000E-01  0.000000000000E+00 -2.500000000000E-01
0013  -5.000000000000E-01  0.000000000000E+00  0.000000000000E+00
0014  -5.000000000000E-01  0.000000000000E+00  2.500000000000E-01
0015  -5.000000000000E-01  0.000000000000E+00  5.000000000000E-01
0016  -5.000000000000E-01  2.500000000000E-01 -5.000000000000E-01
0017  -5.000000000000E-01  2.500000000000E-01 -2.500000000000E-01
0018  -5.000000000000E-01  2.500000000000E-01  0.000000000000E+00
0019  -5.000000000000E-01  2.500000000000E-01  2.500000000000E-01
0020  -5.000000000000E-01  2.500000000000E-01  5.000000000000E-01
0021  -5.000000000000E-01  5.000000000000E-01 -5.000000000000E-01
0022  -5.000000000000E-01  5.000000000000E-01 -2.500000000000E-01
0023  -5.000000000000E-01  5.000000000000E-01  0.000000000000E+00
0024  -5.000000000000E-01  5.000000000000E-01  2.500000000000E-01
0025  -5.000000000000E-01  5.000000000000E-01  5.000000000000E-01
0026  -2.500000000000E-01 -5.000000000000E-01 -5.000000000000E-01
0027  -2.500000000000E-01 -5.000000000000E-01 -2.500000000000E-01
0028  -2.500000000000E-01 -5.000000000000E-01  0.000000000000E+00
0029  -2.500000000000E-01 -5.000000000000E-01  2.500000000000E-01
0030  -2.500000000000E-01 -5.000000000000E-01  5.000000000000E-01
0031  -2.500000000000E-01 -2.500000000000E-01 -5.000000000000E-01
0032  -2.500000000000E-01 -2.500000000000E-01 -2.500000000000E-01
0033  -2.500000000000E-01 -2.500000000000E-01  0.000000000000E+00
0034  -2.500000000000E-01 -2.500000000000E-01  2.500000000000E-01
0035  -2.500000000000E-01 -2.500000000000E-01  5.000000000000E-01
0036  -2.500000000000E-01  0.000000000000E+00 -5.000000000000E-01
0037  -2.500000000000E-01  0.000000000000E+00 -2.500000000000E-01
0038  -2.500000000000E-01  0.000000000000E+00  0.000000000000E+00
0039  -2.500000000000E-01  0.000000000000E+00  2.500000000000E-01
0040  -2.500000000000E-01  0.000000000000E+00  5.000000000000E-01
0041  -2.500000000000E-01  2.500000000000E-01 -5.000000000000E-01
0042  -2.500000000000E-01  2.500000000000E-01 -2.500000000000E-01
0043  -2.500000000000E-01  2.500000000000E-01  0.000000000000E+00
0044  -2.500000000000E-01  2.500000000000E-01  2.500000000000E-01
0045  -2.500000000000E-01  2.500000000000E-01  5.000000000000E-01
0046  -2.500000000000E-01  5.000000000000E-01 -5.000000000000E-01
0047  -2.500000000000E-01  5.000000000000E-01 -2.500000000000E-01
0048  -2.500000000000E-01  5.000000000000E-01  0.000000000000E+00
0049  -2.500000000000E-01  5.000000000000E-01  2.500000000000E-01
0050  -2.500000000000E-01  5.000000000000E-01  5.000000000000E-01
0051   0.000000000000E+00 -5.000000000000E-01 -5.000000000000E-01
0052   0.000000000000E+00 -5.000000000000E-01 -2.500000000000E-01
0053   0.000000000000E+00 -5.000000000000E-01  0.000000000000E+00
0054   0.000000000000E+00 -5.000000000000E-01  2.500000000000E-01
0055   0.000000000000E+00 -5.000000000000E-01  5.000000000000E-01
0056   0.000000000000E+00 -2.500000000000E-01 -5.000000000000E-01
0057   0.000000000000E+00 -2.500000000000E-01 -2.500000000000E-01
0058   0.000000000000E+00 -2.500000000000E-01  0.000000000000E+00
0059   0.000000000000E+00 -2.500000000000E-01  2.500000000000E-01
0060   0.000000000000E+00 -2.500000000000E-01  5.000000000000E-01
0061   0.000000000000E+00  0.000000000000E+00 -5.000000000000E-01
0062   0.000000000000E+00  0.000000000000E+00 -2.500000000000E-01
0063   0.000000000000E+00  0.000000000000E+00  0.000000000000E+00
0064   0.000000000000E+00  0.000000000000E+00  2.500000000000E-01
0065   0.000000000000E+00  0.000000000000E+00  5.000000000000E-01
0066   0.000000000000E+00  2.500000000000E-01 -5.000000000000E-01
0067   0.000000000000E+00  2.500000000000E-01 -2.500000000000E-01
0068   0.000000000000E+00  2.500000000000E-01  0.000000000000E+00
0069   0.000000000000E+00  2.500000000000E-01  2.500000000000E-01
0070   0.000000000000E+00  2.500000000000E-01  5.000000000000E-01
0071   0.000000000000E+00  5.000000000000E-01 -5.000000000000E-01
0072   0.000000000000E+00  5.000000000000E-01 -2.500000000000E-01
0073   0.000000000000E+00  5.000000000000E-01  0.000000000000E+00
0074   0.000000000000E+00  5.000000000000E-01  2.500000000000E-01
0075   0.000000000000E+00  5.000000000000E-01  5.000000000000E-01
0076   2.500000000000E-01 -5.000000000000E-01 -5.000000000000E-01
0077   2.500000000000E-01 -5.000000000000E-01 -2.500000000000E-01
0078   2.500000000000E-01 -5.000000000000E-01  0.000000000000E+00
0079   2.500000000000E-01 -5.000000000000E-01  2.500000000000E-01
0080   2.500000000000E-01 -5.000000000000E-01  5.000000000000E-01
0081   2.500000000000E-01 -2.500000000000E-01 -5.000000000000E-01
0082   2.500000000000E-01 -2.500000000000E-01 -2.500000000000E-01
0083   2.500000000000E-01 -2.500000000000E-01  0.000000000000E+00
0084   2.500000000000E-01 -2.500000000000E-01  2.500000000000E-01
0085   2.500000000000E-01 -2.500000000000E-01  5.000000000000E-01
0086   2.500000000000E-01  0.000000000000E+00 -5.000000000000E-01
0087   2.500000000000E-01  0.000000000000E+00 -2.500000000000E-01
0088   2.500000000000E-01  0.000000000000E+00  0.000000000000E+00
0089   2.500000000000E-01  0.000000000000E+00  2.500000000000E-01
0090   2.500000000000E-01  0.000000000000E+00  5.000000000000E-01
0091   2.500000000000E-01  2.500000000000E-01 -5.000000000000E-01
0092   2.500000000000E-01  2.500000000000E-01 -2.500000000000E-01
0093   2.500000000000E-01  2.500000000000E-01  0.000000000000E+00
0094   2.500000000000E-01  2.500000000000E-01  2.500000000000E-01
0095   2.500000000000E-01  2.500000000000E-01  5.000000000000E-01
0096   2.500000000000E-01  5.000000000000E-01 -5.000000000000E-01
0097   2.500000000000E-01  5.000000000000E-01 -2.500000000000E-01
0098   2.500000000000E-01  5.000000000000E-01  0.000000000000E+00
0099   2.500000000000E-01  5.000000000000E-01  2.500000000000E-01
0100   2.500000000000E-01  5.000000000000E-01  5.000000000000E-01
0101   5.000000000000E-01 -5.000000000000E-01 -5.000000000000E-01
0102   5.000000000000E-01 -5.000000000000E-01 -2.500000000000E-01
0103   5.000000000000E-01 -5.000000000000E-01  0.000000000000E+00
0104   5.000000000000E-01 -5.000000000000E-01  2.500000000000E-01
0105   5.000000000000E-01 -5.000000000000E-01  5.000000000000E-01
0106   5.000000000000E-01 -2.500000000000E-01 -5.000000000000E-01
0107   5.000000000000E-01 -2.500000000000E-01 -2.500000000000E-01
0108   5.000000000000E-01 -2.500000000000E-01  0.000000000000E+00
0109   5.000000000000E-01 -2.500000000000E-01  2.500000000000E-01
0110   5.000000000000E-01 -2.500000000000E-01  5.000000000000E-01
0111   5.000000000000E-01  0.000000000000E+00 -5.000000000000E-01
0112   5.000000000000E-01  0.000000000000E+00 -2.500000000000E-01
0113   5.000000000000E-01  0.000000000000E+00  0.000000000000E+00
0114   5.000000000000E-01  0.000000000000E+00  2.500000000000E-01
0115   5.000000000000E-01  0.000000000000E+00  5.000000000000E-01
0116   5.000000000000E-01  2.500000000000E-01 -5.000000000000E-01
0117   5.000000000000E-01  2.500000000000E-01 -2.500000000000E-01
0118   5.000000000000E-01  2.500000000000E-01  0.000000000000E+00
0119   5.000000000000E-01  2.500000000000E-01  2.500000000000E-01
0120   5.000000000000E-01  2.500000000000E-01  5.000000000000E-01
0121   5.000000000000E-01  5.000000000000E-01 -5.000000000000E-01
0122   5.000000000000E-01  5.000000000000E-01 -2.500000000000E-01
0123   5.000000000000E-01  5.000000000000E-01  0.000000000000E+00
0124   5.000000000000E-01  5.000000000000E-01  2.500000000000E-01
0125   5.000000000000E-01  5.000000000000E-01  5.000000000000E-01
0001        1   tet  85 114  90  84
0002        1   tet   1   2   6  26
0003        1   tet 104 110  84 109
0004        1   tet  34  60  59  54
0005        1   tet  28   4  33  34
0006        1   tet  33  38  32  62
0007        1   tet  83  78  54  84
0008        1   tet  83  59  58  63
0009        1   tet  90  95 119 120
0010        1   tet 104 109  84 108
0011        1   tet 117  97  92  91
0012        1   tet  68  94  88  89
0013        1   tet  92  97  67  91
0014        1   tet  39  44  38  68
0015        1   tet  17  38  43  37
0016        1   tet  48  43  42  22
0017        1   tet  34  35  60  55
0018        1   tet  59  60  84  54
0019        1   tet 110 115  90 114
0020        1   tet  93  97  92 117
0021        1   tet  93  97  67  92
0022        1   tet  83  53  58  59
0023        1   tet  58  53  33  59
0024        1   tet  83  54  53  59
0025        1   tet  57  83  58  63
0026        1   tet 114  89 119  90
0027        1   tet  63  69  39  68
0028        1   tet  73  44  43  49
0029        1   tet  59  60  34  39
0030        1   tet  57  58  33  63
0031        1   tet  23  19  24  49
0032        1   tet  24  19  25  49
0033        1   tet  72  42  46  47
0034        1   tet  72  67  73  97
0035        1   tet   6   7  32   2
0036        1   tet   7   8  32   2
0037        1   tet 123  93  98  99
0038        1   tet  98  93  73  99
0039        1   tet  19  20  25  49
0040        1   tet  62  67  61  91
0041        1   tet  97  93  98 123
0042        1   tet  39  44  18  38
0043        1   tet  56  82  81  76
0044        1   tet  48  43  72  42
0045        1   tet  29  35   5  34
0046        1   tet  81  82 106  76
0047        1   tet  63  89  64  69
0048        1   tet  37  38  43  67
0049        1   tet  62  88  82  83
0050        1   tet  89  60  65  90
0051        1   tet  29  35  34  55
0052        1   tet  57  63  33  62
0053        1   tet 105 110  84 104
0054        1   tet  63  64  39  69
0055        1   tet  55  85  79  80
0056        1   tet  89  65  64  69
0057        1   tet  64  65  39  69
0058        1   tet  78  84 108  79
0059        1   tet  88 118  93 117
0060        1   tet  62  87  86  82
0061        1   tet  48  42  47  22
0062        1   tet  68  69  94  89
0063        1   tet 115 120  90 114
0064        1   tet  48  42  72  47
0065        1   tet  89  84  59  60
0066        1   tet  29   5  35  30
0067        1   tet  56  82  76  77
0068        1   tet  29  30  35  55
0069        1   tet  12   8  13  38
0070        1   tet  13   8  14  38
0071        1   tet  96 122 121 116
0072        1   tet  79  85  84 105
0073        1   tet  88  94 118  89
0074        1   tet  84  85  60  90
0075        1   tet  44  45  50  74
0076        1   tet  79 105  84 104
0077        1   tet  33  59  34  63
0078        1   tet  62  63  88  83
0079        1   tet  79 104  84 108
0080        1   tet  33  38  12  32
0081        1   tet  87  93  67  92
0082        1   tet  62  88  87  82
0083        1   tet  87  88 112  82
0084        1   tet  39  10   9  15
0085        1   tet  54  55  84  79
0086        1   tet  88  93  87 117
0087        1   tet  87 112  86  82
0088        1   tet  88  93  67  87
0089        1   tet  83 113 112 107
0090        1   tet  87  93  92 117
0091        1   tet  82  88 112  83
0092        1   tet  74  70  50  75
0093        1   tet  45  74  69  70
0094        1   tet  47  42  46  22
0095        1   tet  70  74  69  95
0096        1   tet  74  95  70 100
0097        1   tet  43  44  23  49
0098        1   tet  89  69  94  95
0099        1   tet 108  84 113 114
0100        1   tet  74  70  75 100
0101        1   tet  58  59  33  63
0102        1   tet  57  53  28  33
0103        1   tet  53  54  33  59
0104        1   tet  37  62  61  32
0105        1   tet  80  85  79 105
0106        1   tet  89 119 118 113
0107        1   tet  77 107 106 101
0108        1   tet  83  78  53  54
0109        1   tet  42  37  36  16
0110        1   tet  42  37  66  36
0111        1   tet  42  41  46  16
0112        1   tet  20  44  50  49
0113        1   tet  23  44  19  49
0114        1   tet  19  44  20  49
0115        1   tet   6   2  32  27
0116        1   tet  11  12  37  32
0117        1   tet  32  62  56  57
0118        1   tet   2   3  32  27
0119        1   tet  89 119 113 114
0120        1   tet  26   2   6  27
0121        1   tet 109 114  84 108
0122        1   tet  60  85  84  55
0123        1   tet 110 114  84 109
0124        1   tet  33  54  34  59
0125        1   tet  33  54  28  34
0126        1   tet  85 114  84 110
0127        1   tet  83 113 107 108
0128        1   tet  85 110  84 105
0129        1   tet  93  94  68  73
0130        1   tet  97 118  93 123
0131        1   tet  73  67  72  43
0132        1   tet  73  68  44  74
0133        1   tet  38  62  68  67
0134        1   tet  84  63  83  89
0135        1   tet  22  17  46  16
0136        1   tet  23  43  48  22
0137        1   tet  89  94 119  95
0138        1   tet  39  60  34  40
0139        1   tet  39  60  40  65
0140        1   tet  93  97  68  67
0141        1   tet  89  90  65  69
0142        1   tet  68  94  93  88
0143        1   tet  93  94 118  88
0144        1   tet  76  77 106 101
0145        1   tet  84  83 113  89
0146        1   tet  83  54  59  84
0147        1   tet  65  45  69  70
0148        1   tet 124  95 125 119
0149        1   tet 124  94 100  95
0150        1   tet  83  84  59  63
0151        1   tet  57  53  33  58
0152        1   tet  63  84  59  89
0153        1   tet  61  62  86  56
0154        1   tet  32  57  56  27
0155        1   tet  56  57  82  77
0156        1   tet  64  59  39  65
0157        1   tet  27  33  57  28
0158        1   tet  43  67  72  42
0159        1   tet  60  35  34  40
0160        1   tet  53  54  28  33
0161        1   tet  67  66  46  42
0162        1   tet  18  19  23  44
0163        1   tet  67  37  66  42
0164        1   tet 119  95 125 120
0165        1   tet  85 110  90 114
0166        1   tet   9  34  39  33
0167        1   tet  42  66  46  41
0168        1   tet  84  89 113 114
0169        1   tet  34  10   9  39
0170        1   tet  17  37  43  42
0171        1   tet  62  91  61  86
0172        1   tet  42  37  43  67
0173        1   tet  27  28  57  52
0174        1   tet  76  82 106  77
0175        1   tet  17  42  46  16
0176        1   tet  25  20  50  49
0177        1   tet  67  97  96  91
0178        1   tet 113 118  88 112
0179        1   tet 112  88  87 117
0180        1   tet   7  12  32   8
0181        1   tet  33   4   3   9
0182        1   tet   4   5  10  34
0183        1   tet  34  10  39  40
0184        1   tet   8   9  14  38
0185        1   tet  33   3   8   9
0186        1   tet  16  22  21  46
0187        1   tet  12  33   8  38
0188        1   tet   8  33   9  38
0189        1   tet  96 116 117 122
0190        1   tet  96  91 117 116
0191        1   tet  39  40  45  69
0192        1   tet 116  91 117 111
0193        1   tet 124  99 100  94
0194        1   tet  14  15  20  44
0195        1   tet  99  74 100  94
0196        1   tet  82 112  86 107
0197        1   tet  56  57  86  82
0198        1   tet  88  68  62  67
0199        1   tet  56  62  86  57
0200        1   tet  57  62  86  82
0201        1   tet  32  33  57  27
0202        1   tet  82  83 112 107
0203        1   tet  83  63  88  89
0204        1   tet  46  72  66  67
0205        1   tet  51  56  76  77
0206        1   tet  88  93  68  67
0207        1   tet  18  44  23  43
0208        1   tet  82 107 106  77
0209        1   tet  46  72  71  66
0210        1   tet  39  65  40  69
0211        1   tet  63  59  64  89
0212        1   tet  22  42  46  17
0213        1   tet  73  43  48  49
0214        1   tet  48  43  23  49
0215        1   tet  65  70  69  95
0216        1   tet 114  90 119 120
0217        1   tet  63  59  39  64
0218        1   tet 112  91  87  86
0219        1   tet  83  88 113  89
0220        1   tet  42  36  66  41
0221        1   tet  11  37  31  32
0222        1   tet  57  63  62  83
0223        1   tet  78 108 107 102
0224        1   tet  99  94  73  74
0225        1   tet  94  74 100  95
0226        1   tet  37  61  66  36
0227        1   tet  94  69  74  95
0228        1   tet  66  72  96  67
0229        1   tet  31  37  61  32
0230        1   tet  67  62  61  37
0231        1   tet  13  14  18  38
0232        1   tet  39   9  14  15
0233        1   tet  57  78  53  83
0234        1   tet   9  39  14  38
0235        1   tet  14  39  18  38
0236        1   tet  12  13  18  38
0237        1   tet 104 108  79 103
0238        1   tet  33  34  39  63
0239        1   tet  38  33  39  63
0240        1   tet   9  33  39  38
0241        1   tet  97  93  68  73
0242        1   tet  44  39  45  69
0243        1   tet  33   4   9  34
0244        1   tet  15  39  45  44
0245        1   tet  39  10  15  40
0246        1   tet  57  62  82  83
0247        1   tet  87  91  62  86
0248        1   tet  88  89 118 113
0249        1   tet  17  38  18  43
0250        1   tet  12  38  17  37
0251        1   tet  67  68  73  97
0252        1   tet  72  97  96  67
0253        1   tet 112 117  87  91
0254        1   tet  88 113 112  83
0255        1   tet  90  65  69  95
0256        1   tet 123 118  93  94
0257        1   tet  63  68  62  88
0258        1   tet  89  60  59  65
0259        1   tet  29  34  54  55
0260        1   tet  78 108 102 103
0261        1   tet  83 108 107  78
0262        1   tet  52  57  77  78
0263        1   tet  57  83  77  78
0264        1   tet  63  59  34  39
0265        1   tet 117  91 112 111
0266        1   tet  54  60  84  55
0267        1   tet  78  79  54  84
0268        1   tet  54  29  28  34
0269        1   tet 107 112  86 106
0270        1   tet 118  97  93 117
0271        1   tet  87 117  92  91
0272        1   tet  34  35   5  10
0273        1   tet  34  35  10  40
0274        1   tet   9   4  10  34
0275        1   tet   3  33  32  27
0276        1   tet  15  40  45  39
0277        1   tet  17  12  37  11
0278        1   tet  16  37  36  11
0279        1   tet  67  61  66  37
0280        1   tet   3   8  32  33
0281        1   tet  27  57  51  52
0282        1   tet  27  57  56  51
0283        1   tet  26  27  56  51
0284        1   tet  68  69  44  74
0285        1   tet  22  43  42  17
0286        1   tet  17  37  42  16
0287        1   tet  39  69  44  68
0288        1   tet  36  37  61  31
0289        1   tet  45  44  69  74
0290        1   tet   6  32  31  26
0291        1   tet  11  37  36  31
0292        1   tet  17  37  16  11
0293        1   tet  42  36  41  16
0294        1   tet  57  53  58  83
0295        1   tet  19  14  20  44
0296        1   tet   6  12  32   7
0297        1   tet  56  82  86  81
0298        1   tet  78  79 108 103
0299        1   tet  52  78  53  57
0300        1   tet  20  45  50  44
0301        1   tet   3  33  27  28
0302        1   tet  28   4   3  33
0303        1   tet 123 118  94 124
0304        1   tet 123  94  93  99
0305        1   tet  88  67  62  87
0306        1   tet 112 111  86 106
0307        1   tet 122  97 117  96
0308        1   tet  63  68  88  89
0309        1   tet   8  12  32  33
0310        1   tet   4  29   5  34
0311        1   tet  28  29   4  34
0312        1   tet  94  69  68  74
0313        1   tet 124  94  95 119
0314        1   tet  73  94  68  74
0315        1   tet 118 119  94 124
0316        1   tet  12  38  18  17
0317        1   tet  63  39  38  68
0318        1   tet  38  63  68  62
0319        1   tet  87  67  62  91
0320        1   tet  31  32  56  26
0321        1   tet  33  63  38  62
0322        1   tet  74  45  50  70
0323        1   tet  94 119 118  89
0324        1   tet  77  78 107 102
0325        1   tet  55  85  84  79
0326        1   tet  82  83 107  77
0327        1   tet  51  57  77  52
0328        1   tet  73  43  72  48
0329        1   tet  72  67  46  42
0330        1   tet  73  68  43  44
0331        1   tet 123  94  99 124
0332        1   tet  90  89 119  95
0333        1   tet  90  69  89  95
0334        1   tet  97  93  73  98
0335        1   tet  84 114  90  89
0336        1   tet  63  69  68  89
0337        1   tet  81  82  86 106
0338        1   tet  77 107 101 102
0339        1   tet  82 107  86 106
0340        1   tet  77  83 107  78
0341        1   tet 123  97 117 122
0342        1   tet 123  97 118 117
0343        1   tet 117  97  91  96
0344        1   tet  51  57  56  77
0345        1   tet  59  60  39  65
0346        1   tet  18  14  19  44
0347        1   tet  89  84  60  90
0348        1   tet  89  59  64  65
0349        1   tet  18  39  14  44
0350        1   tet  20  15  45  44
0351        1   tet  32  38  37  62
0352        1   tet  57  33  32  62
0353        1   tet  32  62  61  56
0354        1   tet  31  32  61  56
0355        1   tet  32  38  12  37
0356        1   tet   6  12  11  32
0357        1   tet  49  44  50  74
0358        1   tet  40  45  69  65
0359        1   tet  23  18  43  17
0360        1   tet  73  44  49  74
0361        1   tet  61  67  66  91
0362        1   tet  71  72  96  66
0363        1   tet  37  62  38  67
0364        1   tet  43  38  68  67
0365        1   tet  66  67  96  91
0366        1   tet  83  84 108  78
0367        1   tet 112 118  88 117
0368        1   tet  34  60  54  55
0369        1   tet  52  53  28  57
0370        1   tet 108  83 113  84
0371        1   tet  57  83  82  77
0372        1   tet  73  68  67  43
0373        1   tet  38  44  43  68
0374        1   tet  38  44  18  43
0375        1   tet 124 100 125  95
0376        1   tet  23  43  22  17
0377        1   tet 112  91  86 111
0378        1   tet  87  92  67  91
0379        1   tet  93  94  73  99
0380        1   tet   6  32  26  27
0381        1   tet   2   8  32   3
0382        1   tet  14  39  15  44
0383        1   tet  26  32  56  27
0384        1   tet   6  11  31  32
00005  1  1  1  1  1
imt1, integer 
itp1, integer 
icr1, integer 
isn1, integer 
node_id, integer 
    1  1  10  0  0    1
    2  1  10  0  0    2
    3  1  10  0  0    3
    4  1  10  0  0    4
    5  1  10  0  0    5
    6  1  10  0  0    6
    7  1  10  0  0    7
    8  1  10  0  0    8
    9  1  10  0  0    9
   10  1  10  0  0   10
   11  1  10  0  0   11
   12  1  10  0  0   12
   13  1  10  0  0   13
   14  1  10  0  0   14
   15  1  10  0  0   15
   16  1  10  0  0   16
   17  1  10  0  0   17
   18  1  10  0  0   18
   19  1  10  0  0   19
   20  1  10  0  0   20
   21  1  10  0  0   21
   22  1  10  0  0   22
   23  1  10  0  0   23
   24  1  10  0  0   24
   25  1  10  0  0   25
   26  1  10  0  0   26
   27  1  10  0  0   27
   28  1  10  0  0   28
   29  1  10  0  0   29
   30  1  10  0  0   30
   31  1  10  0  0   31
   32  1   0  0  0   32
   33  1   0  0  0   33
   34  1   0  0  0   34
   35  1  10  0  0   35
   36  1  10  0  0   36
   37  1   0  0  0   37
   38  1   0  0  0   38
   39  1   0  0  0   39
   40  1  10  0  0   40
   41  1  10  0  0   41
   42  1   0  0  0   42
   43  1   0  0  0   43
   44  1   0  0  0   44
   45  1  10  0  0   45
   46  1  10  0  0   46
   47  1  10  0  0   47
   48  1  10  0  0   48
   49  1  10  0  0   49
   50  1  10  0  0   50
   51  1  10  0  0   51
   52  1  10  0  0   52
   53  1  10  0  0   53
   54  1  10  0  0   54
   55  1  10  0  0   55
   56  1  10  0  0   56
   57  1   0  0  0   57
   58  1   0  0  0   58
   59  1   0  0  0   59
   60  1  10  0  0   60
   61  1  10  0  0   61
   62  1   0  0  0   62
   63  1   0  0  0   63
   64  1   0  0  0   64
   65  1  10  0  0   65
   66  1  10  0  0   66
   67  1   0  0  0   67
   68  1   0  0  0   68
   69  1   0  0  0   69
   70  1  10  0  0   70
   71  1  10  0  0   71
   72  1  10  0  0   72
   73  1  10  0  0   73
   74  1  10  0  0   74
   75  1  10  0  0   75
   76  1  10  0  0   76
   77  1  10  0  0   77
   78  1  10  0  0   78
   79  1  10  0  0   79
   80  1  10  0  0   80
   81  1  10  0  0   81
   82  1   0  0  0   82
   83  1   0  0  0   83
   84  1   0  0  0   84
   85  1  10  0  0   85
   86  1  10  0  0   86
   87  1   0  0  0   87
   88  1   0  0  0   88
   89  1   0  0  0   89
   90  1  10  0  0   90
   91  1  10  0  0   91
   92  1   0  0  0   92
   93  1   0  0  0   93
   94  1   0  0  0   94
   95  1  10  0  0   95
   96  1  10  0  0   96
   97  1  10  0  0   97
   98  1  10  0  0   98
   99  1  10  0  0   99
  100  1  10  0  0  100
  101  1  10  0  0  101
  102  1  10  0  0  102
  103  1  10  0  0  103
  104  1  10  0  0  104
  105  1  10  0  0  105
  106  1  10  0  0  106
  107  1  10  0  0  107
  108  1  10  0  0  108
  109  1  10  0  0  109
  110  1  10  0  0  110
  111  1  10  0  0  111
  112  1  10  0  0  112
  113  1  10  0  0  113
  114  1  10  0  0  114
  115  1  10  0  0  115
  116  1  10  0  0  116
  117  1  10  0  0  117
  118  1  10  0  0  118
  119  1  10  0  0  119
  120  1  10  0  0  120
  121  1  10  0  0  121
  122  1  10  0  0  122
  123  1  10  0  0  123
  124  1  10  0  0  124
  125  1  10  0  0  125
